data/solutions/recovery/degenerate/intermediate/binding/degenerate_intermediate_instance21/37.sol
Elapsed time: 0.08
Upper bound: 30806004.0
Planning weighted value: 1.00930041738e+11
C[0]=30806004.0
C[1]=30343791.0
C[2]=29096626.0
C[3]=28350348.0
C[4]=28290955.0
C[5]=28178204.0
C[6]=27458961.0
C[7]=27230213.0
C[8]=26942951.0
C[9]=24300493.0
C[10]=0.0
C[11]=0.0
y[0]=6
y[1]=4
y[2]=4
y[3]=1
y[4]=3
y[5]=8
y[6]=7
y[7]=3
y[8]=5
y[9]=2
y[10]=5
y[11]=1
y[12]=9
y[13]=6
y[14]=7
y[15]=6
y[16]=7
y[17]=1
y[18]=7
y[19]=2
y[20]=7
y[21]=3
y[22]=9
y[23]=0
y[24]=2
y[25]=3
y[26]=6
y[27]=1
y[28]=0
y[29]=6
y[30]=2
y[31]=5
y[32]=2
y[33]=8
y[34]=4
y[35]=3
y[36]=3
y[37]=2
y[38]=3
y[39]=5
y[40]=4
y[41]=3
y[42]=0
y[43]=2
y[44]=4
y[45]=0
y[46]=6
y[47]=0
y[48]=5
y[49]=1
y[50]=8
y[51]=8
y[52]=5
y[53]=0
y[54]=9
y[55]=9
y[56]=6
y[57]=1
y[58]=6
y[59]=8
y[60]=7
y[61]=9
y[62]=5
y[63]=1
y[64]=5
