data/solutions/recovery/degenerate/intermediate/binding/degenerate_intermediate_instance21/37.log

Log started (V12.6.3.0) Sun Apr 22 12:29:03 2018

New value for default parallel thread count: 1

Problem '/tmp/tmpuavkhi.pyomo.lp' read.
Read time = 0.01 sec. (0.50 ticks)

Problem name         : /tmp/tmpuavkhi.pyomo.lp
Objective sense      : Minimize
Variables            :     794  [Nneg: 1,  Binary: 780,  General Integer: 13]
Objective nonzeros   :       1
Linear constraints   :     157  [Less: 77,  Equal: 80]
  Nonzeros           :   35296
  RHS nonzeros       :      66

Variables            : Min LB: 0.000000         Max UB: 1.000000       
Objective nonzeros   : Min   : 1.000000         Max   : 1.000000       
Linear constraints   :
  Nonzeros           : Min   : 1.000000         Max   : 8298339.       
  RHS nonzeros       : Min   : 1.000000         Max   : 1.000000       
Tried aggregator 2 times.
MIP Presolve eliminated 121 rows and 623 columns.
Aggregator did 10 substitutions.
Reduced MIP has 26 rows, 161 columns, and 330 nonzeros.
Reduced MIP has 160 binaries, 1 generals, 0 SOSs, and 0 indicators.
Presolve time = 0.00 sec. (2.92 ticks)
Found incumbent of value 7.3531181e+07 after 0.01 sec. (3.83 ticks)
Probing time = 0.00 sec. (0.15 ticks)
Tried aggregator 1 time.
Reduced MIP has 26 rows, 161 columns, and 330 nonzeros.
Reduced MIP has 160 binaries, 1 generals, 0 SOSs, and 0 indicators.
Presolve time = 0.00 sec. (0.25 ticks)
Probing time = 0.00 sec. (0.15 ticks)
Clique table members: 16.
MIP emphasis: balance optimality and feasibility.
MIP search method: dynamic search.
Parallel mode: none, using 1 thread.
Root relaxation solution time = 0.00 sec. (0.26 ticks)

        Nodes                                         Cuts/
   Node  Left     Objective  IInf  Best Integer    Best Bound    ItCnt     Gap

*     0+    0                       7.35312e+07   2.76745e+07            62.36%
      0     0   2.80999e+07    17   7.35312e+07   2.80999e+07       49   61.79%
*     0+    0                       3.56125e+07   2.80999e+07            21.10%
      0     0   2.80999e+07    19   3.56125e+07      Fract: 5       70   21.10%
*     0+    0                       3.43305e+07   2.80999e+07            18.15%
      0     0   2.80999e+07    18   3.43305e+07      Fract: 5       96   18.15%
*     0+    0                       3.37940e+07   2.80999e+07            16.85%
*     0+    0                       3.28388e+07   2.80999e+07            14.43%
*     0+    0                       3.24768e+07   2.80999e+07            13.48%
*     0+    0                       3.15103e+07   2.80999e+07            10.82%
      0     2   2.80999e+07    16   3.15103e+07   2.80999e+07       96   10.82%
Elapsed time = 0.02 sec. (11.74 ticks, tree = 0.01 MB, solutions = 7)
*    20+   19                       3.11673e+07   2.80999e+07             9.84%
*    20+   18                       3.08060e+07   2.80999e+07             8.78%

Gomory fractional cuts applied:  4

Root node processing (before b&c):
  Real time             =    0.02 sec. (11.78 ticks)
Sequential b&c:
  Real time             =    0.04 sec. (30.56 ticks)
                          ------------
Total (root+branch&cut) =    0.05 sec. (42.34 ticks)

Solution pool: 9 solutions saved.

MIP - Integer optimal solution:  Objective =  3.0806004000e+07
Solution time =    0.05 sec.  Iterations = 1936  Nodes = 1226
Deterministic time = 42.34 ticks  (772.83 ticks/sec)


Incumbent solution written to file '/tmp/tmpRxUb67.cplex.sol'.
